53 21 72 74 22 41 2 58 
94 59 98 91 44 14 38 86 16 85 93 99 96 6 
27 69 1 50 33 78 34 35 71 65 66 20 30 70 31 
52 7 88 62 10 63 90 32 51 9 81 79 3 77 28 
76 68 80 29 24 55 25 54 12 
40 73 75 56 23 67 39 4 26 
89 18 82 48 19 11 64 49 36 47 46 8 45 83 60 5 84 17 61 100 37 97 
95 92 42 43 15 57 87 13 
